200 783
1 5 1
1 7 1
1 8 1
1 11 1
1 15 1
1 19 1
1 27 1
1 28 1
1 35 1
1 37 1
1 41 1
1 45 1
1 50 1
1 52 1
1 54 1
1 57 1
1 61 1
1 70 1
1 78 1
1 135 1
1 170 1
1 198 1
2 5 1
2 6 1
2 7 1
2 12 1
2 13 1
2 15 1
2 19 1
2 23 1
2 24 1
2 26 1
2 33 1
2 34 1
2 38 1
2 45 1
2 48 1
2 51 1
2 53 1
2 56 1
2 57 1
2 62 1
2 68 1
2 81 1
2 85 1
2 86 1
2 101 1
2 105 1
2 107 1
2 113 1
2 120 1
2 122 1
2 130 1
2 135 1
2 146 1
2 150 1
2 157 1
2 161 1
2 169 1
2 196 1
3 5 1
3 6 1
3 9 1
3 10 1
3 13 1
3 16 1
3 17 1
3 21 1
3 36 1
3 39 1
3 41 1
3 52 1
3 58 1
3 65 1
3 70 1
3 77 1
3 96 1
3 115 1
3 130 1
3 144 1
3 154 1
3 162 1
3 173 1
3 176 1
3 191 1
3 192 1
3 195 1
4 5 1
4 6 1
4 14 1
4 16 1
4 20 1
4 29 1
4 30 1
4 34 1
4 39 1
4 46 1
4 47 1
4 53 1
4 55 1
4 79 1
4 97 1
4 110 1
4 121 1
4 151 1
4 177 1
4 191 1
5 6 1
5 7 1
5 8 1
5 9 1
5 10 1
5 11 1
5 12 1
5 14 1
5 15 1
5 18 1
5 20 1
5 21 1
5 24 1
5 25 1
5 26 1
5 35 1
5 38 1
5 46 1
5 47 1
5 51 1
5 60 1
5 64 1
5 71 1
5 72 1
5 77 1
5 78 1
5 80 1
5 83 1
5 84 1
5 91 1
5 93 1
5 94 1
5 95 1
5 96 1
5 100 1
5 102 1
5 106 1
5 110 1
5 114 1
5 122 1
5 127 1
5 143 1
5 155 1
5 158 1
5 162 1
5 166 1
5 182 1
5 200 1
6 8 1
6 10 1
6 11 1
6 21 1
6 22 1
6 24 1
6 35 1
6 36 1
6 38 1
6 40 1
6 42 1
6 47 1
6 59 1
6 66 1
6 67 1
6 80 1
6 118 1
6 137 1
6 140 1
6 147 1
6 187 1
7 8 1
7 9 1
7 10 1
7 11 1
7 12 1
7 14 1
7 16 1
7 20 1
7 27 1
7 44 1
7 47 1
7 50 1
7 66 1
7 82 1
7 113 1
7 115 1
7 126 1
7 131 1
7 138 1
7 168 1
7 186 1
8 9 1
8 12 1
8 19 1
8 26 1
8 33 1
8 37 1
8 42 1
8 49 1
8 54 1
8 59 1
8 61 1
8 62 1
8 66 1
8 68 1
8 87 1
8 116 1
8 121 1
8 125 1
8 148 1
8 159 1
8 162 1
8 172 1
8 174 1
8 177 1
8 184 1
9 13 1
9 15 1
9 18 1
9 21 1
9 22 1
9 23 1
9 28 1
9 31 1
9 32 1
9 50 1
9 53 1
9 54 1
9 57 1
9 75 1
9 85 1
9 97 1
9 102 1
9 103 1
9 107 1
9 110 1
9 111 1
9 133 1
9 139 1
9 155 1
9 164 1
9 175 1
9 182 1
10 13 1
10 14 1
10 18 1
10 19 1
10 43 1
10 83 1
10 96 1
10 120 1
10 126 1
10 152 1
10 176 1
10 184 1
11 30 1
11 38 1
11 51 1
11 92 1
11 190 1
12 16 1
12 17 1
12 23 1
12 30 1
12 33 1
12 36 1
12 39 1
12 60 1
12 71 1
12 81 1
12 99 1
12 102 1
12 108 1
12 112 1
12 186 1
13 18 1
13 20 1
13 22 1
13 37 1
13 43 1
13 48 1
13 55 1
13 65 1
13 115 1
13 198 1
14 17 1
14 29 1
14 31 1
14 67 1
14 76 1
14 93 1
14 98 1
14 111 1
14 137 1
14 152 1
14 153 1
15 22 1
15 54 1
15 80 1
15 93 1
15 143 1
15 155 1
15 164 1
16 17 1
16 24 1
16 33 1
16 34 1
16 41 1
16 50 1
16 65 1
16 133 1
16 135 1
16 160 1
16 200 1
17 25 1
17 32 1
17 34 1
17 48 1
17 58 1
17 97 1
17 99 1
17 108 1
17 111 1
17 116 1
17 118 1
17 125 1
17 127 1
17 139 1
17 140 1
17 168 1
17 184 1
18 63 1
18 141 1
19 25 1
19 27 1
19 29 1
19 35 1
19 36 1
19 41 1
19 44 1
19 46 1
19 63 1
19 72 1
19 76 1
19 82 1
19 91 1
19 105 1
19 121 1
19 142 1
19 143 1
19 146 1
19 158 1
19 165 1
19 166 1
19 181 1
20 23 1
20 25 1
20 31 1
20 63 1
20 87 1
20 90 1
20 100 1
20 108 1
20 147 1
21 57 1
21 75 1
21 82 1
21 92 1
21 103 1
21 109 1
21 114 1
21 149 1
21 166 1
22 43 1
22 44 1
22 46 1
22 82 1
22 148 1
23 26 1
23 32 1
23 42 1
23 65 1
23 69 1
23 88 1
23 128 1
23 137 1
23 145 1
23 156 1
23 161 1
23 194 1
24 49 1
24 89 1
24 104 1
24 113 1
24 136 1
24 173 1
25 30 1
25 32 1
25 66 1
25 107 1
25 108 1
25 124 1
25 188 1
26 27 1
26 28 1
26 40 1
26 49 1
26 88 1
26 97 1
26 129 1
26 138 1
26 145 1
26 183 1
26 185 1
27 28 1
27 29 1
27 64 1
27 103 1
27 170 1
27 192 1
28 31 1
28 43 1
28 52 1
28 55 1
28 58 1
28 60 1
28 69 1
28 107 1
28 118 1
28 127 1
28 131 1
28 163 1
28 170 1
28 174 1
29 70 1
29 84 1
30 39 1
30 62 1
30 67 1
30 77 1
31 63 1
31 74 1
31 163 1
32 79 1
32 136 1
33 37 1
33 42 1
33 56 1
33 88 1
33 141 1
33 144 1
33 166 1
33 180 1
34 40 1
34 45 1
34 59 1
34 70 1
34 73 1
34 92 1
34 134 1
34 149 1
34 151 1
34 156 1
35 40 1
35 49 1
35 64 1
35 73 1
35 75 1
35 89 1
35 95 1
35 104 1
35 112 1
35 119 1
35 169 1
36 45 1
36 86 1
36 103 1
36 114 1
36 129 1
36 133 1
36 183 1
37 85 1
37 120 1
37 146 1
37 172 1
37 188 1
38 52 1
38 62 1
38 89 1
38 95 1
38 101 1
38 109 1
38 119 1
38 134 1
38 139 1
38 146 1
39 60 1
39 109 1
39 132 1
39 137 1
39 172 1
40 48 1
40 101 1
41 141 1
41 160 1
41 196 1
42 64 1
42 78 1
42 117 1
42 142 1
42 156 1
42 165 1
43 44 1
43 55 1
43 130 1
43 171 1
44 80 1
44 95 1
44 96 1
44 98 1
44 106 1
44 122 1
44 197 1
45 56 1
45 91 1
45 155 1
45 174 1
45 179 1
46 58 1
46 85 1
46 116 1
46 122 1
46 181 1
47 56 1
47 67 1
47 72 1
47 84 1
47 115 1
47 170 1
48 59 1
48 83 1
48 92 1
48 157 1
48 161 1
49 182 1
50 51 1
50 100 1
50 123 1
50 125 1
50 153 1
50 156 1
50 162 1
50 174 1
51 53 1
51 68 1
51 76 1
51 78 1
51 90 1
51 123 1
52 176 1
52 199 1
53 79 1
53 83 1
53 99 1
53 106 1
53 164 1
53 197 1
54 73 1
54 74 1
54 164 1
55 69 1
55 79 1
55 88 1
55 117 1
55 197 1
56 61 1
56 93 1
56 173 1
56 185 1
57 68 1
57 86 1
57 128 1
57 145 1
57 176 1
58 71 1
58 87 1
58 144 1
58 187 1
58 200 1
59 61 1
59 101 1
59 112 1
59 118 1
59 120 1
60 73 1
60 100 1
60 132 1
60 168 1
60 177 1
61 98 1
61 151 1
61 153 1
62 172 1
63 74 1
64 154 1
65 81 1
65 99 1
65 114 1
65 194 1
65 195 1
66 87 1
66 132 1
66 152 1
67 69 1
67 72 1
67 77 1
68 90 1
68 117 1
68 130 1
68 165 1
68 168 1
69 111 1
69 159 1
70 71 1
70 119 1
70 181 1
71 81 1
71 102 1
71 105 1
71 136 1
72 98 1
72 119 1
73 74 1
73 75 1
73 76 1
73 84 1
73 94 1
73 136 1
73 173 1
73 175 1
73 190 1
74 89 1
74 178 1
75 175 1
76 179 1
76 195 1
77 86 1
79 110 1
79 163 1
80 140 1
80 171 1
81 149 1
82 91 1
82 123 1
82 128 1
82 184 1
83 131 1
83 167 1
84 94 1
84 116 1
84 138 1
84 148 1
88 128 1
88 132 1
88 193 1
89 90 1
89 113 1
89 139 1
89 144 1
90 94 1
90 109 1
90 126 1
90 160 1
90 199 1
91 153 1
92 150 1
93 117 1
93 182 1
93 191 1
93 198 1
94 104 1
94 163 1
94 179 1
94 183 1
95 131 1
96 106 1
97 121 1
97 129 1
99 105 1
99 145 1
100 123 1
100 124 1
100 180 1
101 104 1
101 112 1
101 134 1
102 126 1
102 183 1
104 158 1
104 185 1
105 189 1
105 198 1
108 140 1
108 187 1
109 125 1
109 192 1
110 124 1
110 185 1
111 134 1
111 154 1
112 181 1
113 147 1
114 129 1
114 189 1
115 127 1
115 152 1
116 167 1
117 157 1
118 141 1
120 192 1
121 124 1
121 133 1
121 142 1
121 148 1
121 179 1
123 150 1
123 186 1
124 142 1
126 154 1
127 135 1
127 138 1
128 195 1
129 199 1
131 194 1
132 165 1
134 196 1
135 150 1
135 151 1
135 158 1
135 169 1
135 188 1
135 189 1
135 191 1
137 197 1
138 143 1
138 149 1
141 159 1
141 161 1
141 188 1
144 167 1
144 187 1
144 193 1
145 147 1
147 167 1
151 171 1
151 180 1
152 157 1
153 169 1
154 159 1
155 180 1
157 160 1
158 190 1
158 199 1
160 171 1
162 175 1
163 194 1
163 200 1
165 190 1
167 178 1
168 189 1
170 178 1
171 186 1
174 193 1
175 177 1
175 178 1
177 196 1
188 193 1
